c ren 1 -> 1
c ren 2 -> 2
c ren 4 -> 3
c ren 6 -> 4
c ren 7 -> 5
c ren 12 -> 6
c ren 13 -> 7
c ren 18 -> 8
c ren 23 -> 9
c ren 24 -> 10
c ren 29 -> 11
c ren 30 -> 12
c ren 35 -> 13
c ren 39 -> 14
c ren 40 -> 15
c ren 42 -> 16
c ren 45 -> 17
c ren 47 -> 18
c ren 50 -> 19
c ren 52 -> 20
c ren 55 -> 21
c ren 57 -> 22
c ren 60 -> 23
c ren 62 -> 24
c ren 65 -> 25
c ren 70 -> 26
c ren 72 -> 27
c ren 75 -> 28
c ren 77 -> 29
c ren 80 -> 30
c ren 82 -> 31
c ren 85 -> 32
c ren 87 -> 33
c ren 90 -> 34
c ren 92 -> 35
c ren 95 -> 36
c ren 97 -> 37
c ren 100 -> 38
c ren 102 -> 39
c ren 105 -> 40
c ren 107 -> 41
c ren 110 -> 42
c ren 112 -> 43
c ren 115 -> 44
c ren 117 -> 45
c ren 120 -> 46
c ren 122 -> 47
c ren 125 -> 48
c ren 127 -> 49
c ren 130 -> 50
c ren 135 -> 51
c ren 140 -> 52
c ren 145 -> 53
c ren 149 -> 54
c ren 150 -> 55
c ren 151 -> 56
c ren 154 -> 57
c ren 155 -> 58
c ren 158 -> 59
c ren 159 -> 60
c ren 162 -> 61
c ren 164 -> 62
c ren 167 -> 63
c ren 168 -> 64
c ren 171 -> 65
c ren 172 -> 66
c ren 175 -> 67
c ren 177 -> 68
c ren 180 -> 69
c ren 182 -> 70
c ren 185 -> 71
c ren 187 -> 72
c ren 190 -> 73
c ren 192 -> 74
c ren 195 -> 75
c ren 197 -> 76
c ren 200 -> 77
c ren 202 -> 78
c ren 205 -> 79
c ren 209 -> 80
c ren 211 -> 81
c ren 214 -> 82
c ren 216 -> 83
c ren 219 -> 84
c ren 221 -> 85
c ren 224 -> 86
c ren 226 -> 87
c ren 229 -> 88
c ren 231 -> 89
c ren 234 -> 90
c ren 236 -> 91
c ren 239 -> 92
c ren 241 -> 93
c ren 244 -> 94
c ren 246 -> 95
c ren 249 -> 96
c ren 251 -> 97
c ren 254 -> 98
c ren 256 -> 99
c ren 259 -> 100
c ren 264 -> 101
c ren 268 -> 102
c ren 272 -> 103
c ren 276 -> 104
c ren 277 -> 105
c ren 279 -> 106
c ren 282 -> 107
c ren 283 -> 108
c ren 284 -> 109
c ren 287 -> 110
c ren 290 -> 111
c ren 293 -> 112
c ren 294 -> 113
c ren 297 -> 114
c ren 300 -> 115
c ren 302 -> 116
c ren 304 -> 117
c ren 305 -> 118
c ren 307 -> 119
c ren 309 -> 120
c ren 311 -> 121
c ren 312 -> 122
c ren 314 -> 123
c ren 318 -> 124
c ren 320 -> 125
c ren 321 -> 126
c ren 323 -> 127
c ren 325 -> 128
c ren 327 -> 129
c ren 328 -> 130
c ren 333 -> 131
c ren 334 -> 132
c ren 336 -> 133
c ren 340 -> 134
c ren 343 -> 135
c ren 349 -> 136
c ren 350 -> 137
c ren 353 -> 138
c ren 357 -> 139
c ren 360 -> 140
c ren 364 -> 141
c ren 365 -> 142
c ren 368 -> 143
c ren 371 -> 144
c ren 372 -> 145
c ren 375 -> 146
c ren 378 -> 147
c ren 381 -> 148
c ren 383 -> 149
c ren 384 -> 150
c ren 386 -> 151
c ren 388 -> 152
c ren 391 -> 153
c ren 395 -> 154
c ren 396 -> 155
c ren 398 -> 156
c ren 399 -> 157
c ren 402 -> 158
c ren 403 -> 159
c ren 410 -> 160
c ren 421 -> 161
c ren 426 -> 162
c ren 428 -> 163
c ren 430 -> 164
c ren 435 -> 165
c ren 437 -> 166
c ren 440 -> 167
c ren 445 -> 168
c ren 458 -> 169
c ren 459 -> 170
c ren 460 -> 171
c ren 462 -> 172
c ren 463 -> 173
c ren 466 -> 174
c ren 467 -> 175
c ren 469 -> 176
c ren 470 -> 177
c ren 474 -> 178
c ren 475 -> 179
c ren 477 -> 180
c ren 478 -> 181
c ren 480 -> 182
c ren 486 -> 183
p cnf 183 706
a 1 2 4 5 6 7 8 9 10 11 12 13 15 17 19 21 23 25 26 28 30 32 34 36 38 40 42 44 46 48 50 51 52 53 55 57 59 61 63 65 67 69 71 73 75 77 79 80 82 84 86 88 90 92 94 96 98 100 101 102 103 105 107 110 111 113 114 116 118 120 122 124 126 128 130 133 134 135 137 138 139 140 142 143 145 146 148 150 152 154 156 159 168 181 183 0
d 108 5 7 10 12 0
d 131 2 168 0
d 132 5 10 12 101 0
d 153 2 181 0
d 158 2 107 183 0
e 3 14 16 18 20 22 24 27 29 31 33 35 37 39 41 43 45 47 49 54 56 58 60 62 64 66 68 70 72 74 76 78 81 83 85 87 89 91 93 95 97 99 104 106 109 112 115 117 119 121 123 125 127 129 136 141 144 147 149 151 155 157 160 161 162 163 164 165 166 167 169 170 171 172 173 174 175 176 177 178 179 180 182 0
-1 2 3 0
1 -2 3 0
-1 -2 -3 0
1 2 -3 0
-4 -5 14 0
-3 4 -5 6 -7 8 9 -10 -11 12 13 -14 0
-3 4 -5 6 -7 8 -9 10 11 -12 13 -14 0
-3 -4 5 -6 7 -8 -9 10 -11 12 -13 -14 0
-3 4 -5 6 -7 8 9 -10 11 -12 13 -14 0
-3 -4 5 -6 7 -8 -9 10 11 -12 13 -14 0
6 7 14 0
-3 -4 5 -6 7 -8 9 -10 -11 12 13 -14 0
-3 -4 5 -6 7 -8 9 -10 11 -12 13 -14 0
-3 4 -5 -6 7 8 -9 10 11 -12 13 -14 0
-3 -4 5 6 -7 8 -9 10 -11 12 -13 -14 0
-3 4 -5 -6 7 8 9 -10 -11 12 13 -14 0
-3 -4 5 6 -7 8 9 -10 11 -12 13 -14 0
-3 -4 5 6 -7 8 -9 10 11 -12 13 -14 0
-6 -7 14 0
-4 -6 8 14 0
-3 -4 5 6 -7 8 9 -10 -11 12 13 -14 0
-3 4 -5 -6 7 8 9 -10 11 -12 13 -14 0
4 5 14 0
9 10 14 0
-9 -10 14 0
-3 4 -5 6 -7 8 -9 10 -11 12 -13 -14 0
6 -8 14 0
4 -8 14 0
11 12 14 0
3 14 0
9 -13 14 0
-11 -12 14 0
11 -13 14 0
-9 -11 13 14 0
-3 4 -5 -6 7 8 -9 10 -11 12 -13 -14 0
8 -15 -16 0
-8 -13 -15 16 0
-8 -13 15 -16 0
13 15 16 0
13 -15 -16 0
8 15 16 0
16 54 0
5 -17 -18 0
-5 -6 -17 18 0
-5 -6 17 -18 0
6 17 18 0
6 -17 -18 0
5 17 18 0
18 54 0
13 -19 -20 0
-13 -17 -19 20 0
-13 -17 19 -20 0
17 19 20 0
17 -19 -20 0
13 19 20 0
20 54 0
4 -21 -22 0
-4 -7 -21 22 0
-4 -7 21 -22 0
7 21 22 0
7 -21 -22 0
4 21 22 0
22 54 0
13 -23 -24 0
-13 -21 -23 24 0
-13 -21 23 -24 0
21 23 24 0
21 -23 -24 0
13 23 24 0
24 54 0
7 -25 54 0
5 14 -16 -18 -20 -22 -24 25 -27 -29 -31 -33 -35 -37 -39 -41 -43 -45 -47 48 -49 50 51 52 53 -54 0
5 -25 54 0
5 10 54 -56 -58 59 -60 -62 -64 -66 -68 -70 -72 -74 -76 -78 79 -81 -83 -85 -87 -89 -91 -93 -95 -97 -99 100 101 102 103 -104 0
-5 -7 79 104 0
5 12 54 -56 -58 59 -60 -62 -64 -66 -68 -70 -72 -74 -76 -78 79 -81 -83 -85 -87 -89 -91 -93 -95 -97 -99 100 101 102 103 -104 0
13 -26 -27 0
-13 -25 -26 27 0
-13 -25 26 -27 0
25 26 27 0
25 -26 -27 0
13 26 27 0
27 54 0
10 -28 -29 0
-10 -11 -28 29 0
-10 -11 28 -29 0
11 28 29 0
11 -28 -29 0
10 28 29 0
29 54 0
-8 14 -16 17 -20 -22 -24 25 -27 -29 -31 -33 -35 -37 -39 -41 -43 -45 -47 -48 -49 -50 51 52 53 -54 0
8 -30 -31 0
-8 -28 -30 31 0
-8 -28 30 -31 0
28 30 31 0
28 -30 -31 0
8 30 31 0
31 54 0
17 -32 -33 0
-17 -28 -32 33 0
-17 -28 32 -33 0
28 32 33 0
28 -32 -33 0
17 32 33 0
33 54 0
21 -34 -35 0
-21 -28 -34 35 0
-21 -28 34 -35 0
28 34 35 0
28 -34 -35 0
21 34 35 0
35 54 0
25 -36 -37 0
-25 -28 -36 37 0
-25 -28 36 -37 0
28 36 37 0
28 -36 -37 0
25 36 37 0
37 54 0
14 -16 -17 -18 -20 -22 -24 25 -27 -29 -31 -33 -35 -37 -39 -41 -43 -45 -47 -48 -49 50 -51 52 53 -54 0
9 -38 -39 0
-9 -12 -38 39 0
-9 -12 38 -39 0
12 38 39 0
12 -38 -39 0
9 38 39 0
39 54 0
8 -40 -41 0
-8 -38 -40 41 0
-8 -38 40 -41 0
38 40 41 0
38 -40 -41 0
8 40 41 0
41 54 0
14 -16 -18 -20 -21 -22 -24 25 -27 -29 -31 -33 -35 -37 -39 -41 -43 -45 -47 -48 -49 50 51 -52 53 -54 0
17 -42 -43 0
-17 -38 -42 43 0
-17 -38 42 -43 0
38 42 43 0
38 -42 -43 0
17 42 43 0
43 54 0
-5 -7 25 54 0
21 -44 -45 0
-21 -38 -44 45 0
-21 -38 44 -45 0
38 44 45 0
38 -44 -45 0
21 44 45 0
45 54 0
-5 -7 14 -16 17 -20 21 -24 -25 -27 -29 -31 -33 -35 -37 -39 -41 -43 -45 -47 -48 -49 50 51 52 -53 -54 0
25 -46 -47 0
-25 -38 -46 47 0
-25 -38 46 -47 0
38 46 47 0
38 -46 -47 0
25 46 47 0
47 54 0
-5 -7 14 -16 -18 -20 -22 -24 -25 -27 -29 -31 -33 -35 -37 -39 -41 -43 -45 -47 48 -49 50 51 52 53 -54 0
10 -48 -49 0
-10 -12 -48 49 0
12 54 -56 -58 -59 -60 -62 -64 -66 -68 -70 -72 -74 -76 -78 79 -81 -83 -85 -87 -89 -91 -93 -95 -97 -99 100 -101 102 103 -104 0
-10 -12 48 -49 0
10 54 -56 -58 -59 -60 -62 -64 -66 -68 -70 -72 -74 -76 -78 79 -81 -83 -85 -87 -89 -91 -93 -95 -97 -99 100 -101 102 103 -104 0
-5 12 54 -56 -58 59 -60 -62 -64 -66 -68 -70 -72 -74 -76 -78 -79 -81 -83 -85 -87 -89 -91 -93 -95 -97 -99 100 101 102 103 -104 0
-10 -12 54 -56 -58 -59 -60 -62 -64 -66 -68 -70 71 -72 -74 -76 -78 79 -81 -83 -85 -87 -89 -91 -93 -95 -97 -99 100 -101 -102 103 -104 0
49 54 0
-14 54 0
8 -50 54 0
-17 -48 51 54 0
-8 -48 50 54 0
48 -51 54 0
48 -50 54 0
21 -52 54 0
-21 -48 52 54 0
48 -52 54 0
25 -53 54 0
48 -53 54 0
-25 -48 53 54 0
17 -51 54 0
2 -55 56 0
-2 55 56 0
-2 -55 -56 0
2 55 -56 0
56 104 0
5 -57 58 0
-5 57 58 0
-5 -57 -58 0
5 57 -58 0
58 104 0
7 -59 60 0
-7 59 60 0
-7 -59 -60 0
7 59 -60 0
60 104 0
57 -61 -62 0
-57 -59 -61 62 0
-57 -59 61 -62 0
59 61 62 0
59 -61 -62 0
57 61 62 0
62 104 0
12 48 49 0
10 -63 64 0
-10 63 64 0
-10 -63 -64 0
10 63 -64 0
64 104 0
10 48 49 0
12 -65 66 0
-12 65 66 0
-12 -65 -66 0
12 65 -66 0
66 104 0
12 -48 -49 0
63 -67 -68 0
-63 -65 -67 68 0
-63 -65 67 -68 0
65 67 68 0
65 -67 -68 0
63 67 68 0
68 104 0
-10 -64 -92 -93 0
61 -69 -70 0
-61 -67 -69 70 0
-61 -67 69 -70 0
67 69 70 0
67 -69 -70 0
61 69 70 0
70 104 0
5 -71 -72 0
-5 -59 -71 72 0
-5 -59 71 -72 0
59 71 72 0
59 -71 -72 0
5 71 72 0
72 104 0
-5 -7 10 54 -56 -58 -60 -62 -64 -66 -68 -70 -72 -74 -76 -78 -79 -81 -83 -85 -87 -89 -91 92 -93 -95 -97 -99 100 101 102 103 -104 0
67 -73 -74 0
-67 -71 -73 74 0
-67 -71 73 -74 0
71 73 74 0
71 -73 -74 0
67 73 74 0
74 104 0
7 -75 -76 0
-7 -57 -75 76 0
-7 -57 75 -76 0
57 75 76 0
57 -75 -76 0
7 75 76 0
76 104 0
-10 -12 54 -56 -58 -60 -62 -64 -66 -68 -70 -71 -72 -74 -76 -78 79 -81 -83 -85 -87 -89 -91 -93 -95 -97 -99 100 -101 -102 -103 -104 0
67 -77 -78 0
-67 -75 -77 78 0
-67 -75 77 -78 0
75 77 78 0
75 -77 -78 0
67 77 78 0
78 104 0
5 -10 -12 54 -56 -58 59 -60 -62 -66 -68 -70 -72 -74 -76 -78 79 -81 -83 -85 -87 -89 -91 92 -93 -95 -97 -99 100 101 -102 103 -104 0
7 14 -16 -18 -20 -22 -24 25 -27 -29 -31 -33 -35 -37 -39 -41 -43 -45 -47 48 -49 50 51 52 53 -54 0
67 -80 -81 0
-67 -79 -80 81 0
-67 -79 80 -81 0
79 80 81 0
79 -80 -81 0
67 80 81 0
81 104 0
10 -82 -83 0
-10 -65 -82 83 0
-10 -65 82 -83 0
65 82 83 0
65 -82 -83 0
10 82 83 0
83 104 0
61 -84 -85 0
-61 -82 -84 85 0
-61 -82 84 -85 0
82 84 85 0
82 -84 -85 0
61 84 85 0
85 104 0
-54 104 0
71 -86 -87 0
-71 -82 -86 87 0
-71 -82 86 -87 0
82 86 87 0
82 -86 -87 0
71 86 87 0
87 104 0
75 -88 -89 0
-75 -82 -88 89 0
-75 -82 88 -89 0
82 88 89 0
82 -88 -89 0
75 88 89 0
89 104 0
79 -90 -91 0
-79 -82 -90 91 0
-79 -82 90 -91 0
82 90 91 0
82 -90 -91 0
79 90 91 0
91 104 0
12 -92 -93 0
-12 -63 -92 93 0
-12 -63 92 -93 0
63 92 93 0
63 -92 -93 0
12 92 93 0
93 104 0
61 -94 -95 0
-61 -92 -94 95 0
-61 -92 94 -95 0
92 94 95 0
92 -94 -95 0
61 94 95 0
95 104 0
71 -96 -97 0
-71 -92 -96 97 0
-71 -92 96 -97 0
92 96 97 0
92 -96 -97 0
71 96 97 0
97 104 0
75 -98 -99 0
-75 -92 -98 99 0
-75 -92 98 -99 0
92 98 99 0
92 -98 -99 0
75 98 99 0
99 104 0
-5 -7 10 54 -56 -58 -60 -62 -66 -68 -70 -72 -74 -76 -78 -79 -81 -83 -85 -87 -89 -91 -92 -93 -95 -97 -99 -100 101 102 103 -104 0
-79 -102 -105 106 0
102 105 106 0
79 105 106 0
-107 -108 109 0
107 108 109 0
55 -112 0
-55 -69 -110 112 0
110 111 -112 0
73 110 -112 0
-55 -73 -111 112 0
69 73 -112 0
69 111 -112 0
55 -115 0
-55 -77 -113 115 0
113 114 -115 0
80 113 -115 0
-55 -80 -114 115 0
77 80 -115 0
77 114 -115 0
-115 136 0
100 103 105 108 112 115 117 119 121 123 125 127 129 131 -136 0
116 -117 0
-55 -84 -116 117 0
84 -117 0
55 -117 0
118 -119 0
-55 -86 -118 119 0
86 -119 0
55 -119 0
-119 136 0
55 131 -136 0
120 -121 0
-55 -88 -120 121 0
88 -121 0
55 -121 0
122 -123 0
-55 -90 -122 123 0
90 -123 0
55 -123 0
-123 136 0
100 103 108 112 115 117 119 121 123 125 127 129 131 135 -136 0
100 103 105 112 115 117 119 121 123 125 127 129 131 134 -136 0
100 103 112 115 117 119 121 123 125 127 129 131 134 135 -136 0
124 -125 0
-55 -94 -124 125 0
94 -125 0
55 -125 0
126 -127 0
-55 -96 -126 127 0
96 -127 0
55 -127 0
-127 136 0
100 112 115 117 119 121 123 125 127 129 132 133 134 135 -136 0
128 -129 0
-55 -98 -128 129 0
98 -129 0
55 -129 0
100 108 112 115 117 119 121 123 125 127 129 131 133 135 -136 0
-55 -100 -130 136 0
105 112 115 117 119 121 123 125 127 129 130 131 133 134 -136 0
103 112 115 117 119 121 123 125 127 129 130 131 134 135 -136 0
103 108 112 115 117 119 121 123 125 127 129 130 132 135 -136 0
100 105 108 112 115 117 119 121 123 125 127 129 131 133 -136 0
100 105 112 115 117 119 121 123 125 127 129 131 133 134 -136 0
103 112 115 117 119 121 123 125 127 129 130 132 134 135 -136 0
103 105 112 115 117 119 121 123 125 127 129 130 132 134 -136 0
100 112 115 117 119 121 123 125 127 129 131 133 134 135 -136 0
108 112 115 117 119 121 123 125 127 129 130 132 133 135 -136 0
103 105 108 112 115 117 119 121 123 125 127 129 130 131 -136 0
-131 -132 136 0
103 108 112 115 117 119 121 123 125 127 129 130 131 135 -136 0
100 103 105 112 115 117 119 121 123 125 127 129 132 134 -136 0
-55 -103 -133 136 0
100 105 112 115 117 119 121 123 125 127 129 132 133 134 -136 0
105 108 112 115 117 119 121 123 125 127 129 130 131 133 -136 0
108 112 115 117 119 121 123 125 127 129 130 131 133 135 -136 0
100 103 108 112 115 117 119 121 123 125 127 129 132 135 -136 0
100 103 112 115 117 119 121 123 125 127 129 132 134 135 -136 0
100 108 112 115 117 119 121 123 125 127 129 132 133 135 -136 0
100 105 108 112 115 117 119 121 123 125 127 129 132 133 -136 0
-55 -108 -134 136 0
100 103 105 108 112 115 117 119 121 123 125 127 129 132 -136 0
-129 136 0
103 105 108 112 115 117 119 121 123 125 127 129 130 132 -136 0
-55 -105 -135 136 0
112 115 117 119 121 123 125 127 129 130 132 133 134 135 -136 0
105 112 115 117 119 121 123 125 127 129 130 132 133 134 -136 0
112 115 117 119 121 123 125 127 129 130 131 133 134 135 -136 0
-117 136 0
-112 136 0
-121 136 0
55 132 -136 0
-125 136 0
103 105 112 115 117 119 121 123 125 127 129 130 131 134 -136 0
105 108 112 115 117 119 121 123 125 127 129 130 132 133 -136 0
73 77 137 140 -141 0
-2 -15 -137 170 0
69 73 77 80 -141 0
2 -170 0
77 80 137 138 -141 0
69 77 138 140 -141 0
-2 -19 -138 171 0
137 138 139 140 -141 0
69 73 -77 -80 -139 -140 -141 0
2 -171 0
69 138 139 140 -141 0
73 80 137 139 -141 0
69 -77 -80 138 -139 -140 -141 0
77 137 138 140 -141 0
73 137 139 140 -141 0
-2 -23 -139 172 0
-77 -80 137 138 -139 -140 -141 0
139 -172 0
138 -171 0
69 73 77 140 -141 0
73 77 80 137 -141 0
-2 -26 -140 173 0
69 80 138 139 -141 0
69 73 80 139 -141 0
2 -172 0
80 137 138 139 -141 0
-2 77 -80 -140 141 0
-2 -77 -139 140 141 0
140 -173 0
2 -141 0
2 -173 0
142 -174 0
-2 -30 -142 174 0
86 142 -144 0
2 -174 0
142 143 -144 0
-2 -32 -143 175 0
2 -175 0
84 86 -144 0
84 143 -144 0
145 -176 0
-2 -34 -145 176 0
90 145 -147 0
2 -176 0
145 146 -147 0
-2 -36 -146 177 0
2 -177 0
88 90 -147 0
88 146 -147 0
-147 160 0
98 100 103 105 132 136 141 144 147 149 151 158 -160 0
2 -178 0
-2 -94 -148 149 0
148 -149 0
94 -149 0
-2 -40 -148 178 0
2 -179 0
-2 -96 -150 151 0
150 -151 0
96 -151 0
-2 -42 -150 179 0
-151 160 0
98 100 103 132 136 141 144 147 149 151 158 159 -160 0
152 -180 0
-2 -44 -152 180 0
2 -180 0
100 103 105 136 141 144 147 149 151 152 155 158 -160 0
98 100 103 105 136 141 144 147 149 151 155 158 -160 0
-100 -153 160 0
2 136 153 158 -160 0
98 100 132 136 141 144 147 149 151 157 158 159 -160 0
2 100 136 158 -160 0
98 105 136 141 144 147 149 151 153 155 157 158 -160 0
98 103 136 141 144 147 149 151 153 155 158 159 -160 0
98 100 103 136 141 144 147 149 151 155 158 159 -160 0
98 136 141 144 147 149 151 153 155 157 158 159 -160 0
2 -155 0
154 -155 0
-2 -154 155 0
-132 -155 160 0
98 132 136 141 144 147 149 151 153 157 158 159 -160 0
2 -157 0
156 -157 0
-2 -156 157 0
98 103 105 132 136 141 144 147 149 151 153 158 -160 0
-103 -157 160 0
98 100 136 141 144 147 149 151 155 157 158 159 -160 0
98 100 105 132 136 141 144 147 149 151 157 158 -160 0
-2 -53 104 -106 -109 -159 160 0
52 104 -106 -109 155 157 159 -160 169 170 171 172 173 174 175 176 177 178 179 180 182 0
104 -106 -109 155 157 159 -160 169 170 171 172 173 174 175 176 177 178 179 180 182 183 0
98 103 132 136 141 144 147 149 151 153 158 159 -160 0
98 100 105 136 141 144 147 149 151 155 157 158 -160 0
100 105 132 136 141 144 147 149 151 152 157 158 -160 0
100 103 105 132 136 141 144 147 149 151 152 158 -160 0
-158 160 0
100 103 132 136 141 144 147 149 151 152 158 159 -160 0
98 103 105 136 141 144 147 149 151 153 155 158 -160 0
100 132 136 141 144 147 149 151 152 157 158 159 -160 0
100 105 136 141 144 147 149 151 152 155 157 158 -160 0
-136 160 0
100 103 136 141 144 147 149 151 152 155 158 159 -160 0
1 -161 0
-1 -15 -110 161 0
103 136 141 144 147 149 151 152 153 155 158 159 -160 0
23 26 110 111 -161 0
19 23 26 110 -161 0
110 111 113 114 -161 0
15 19 113 114 -161 0
-1 -19 -111 161 0
103 132 136 141 144 147 149 151 152 153 158 159 -160 0
15 26 111 113 -161 0
15 23 26 111 -161 0
26 110 111 113 -161 0
15 19 23 114 -161 0
15 19 26 113 -161 0
100 136 141 144 147 149 151 152 155 157 158 159 -160 0
19 110 113 114 -161 0
-1 -23 -113 161 0
105 132 136 141 144 147 149 151 152 153 157 158 -160 0
15 111 113 114 -161 0
19 26 110 113 -161 0
103 105 132 136 141 144 147 149 151 152 153 158 -160 0
15 19 23 26 -161 0
-1 -26 -114 161 0
103 105 136 141 144 147 149 151 152 153 155 158 -160 0
132 136 141 144 147 149 151 152 153 157 158 159 -160 0
23 110 111 114 -161 0
136 141 144 147 149 151 152 153 155 157 158 159 -160 0
15 23 111 114 -161 0
105 136 141 144 147 149 151 152 153 155 157 158 -160 0
-141 160 0
-144 160 0
19 23 110 114 -161 0
1 -162 0
-1 -30 -116 162 0
116 118 -162 0
32 116 -162 0
-1 -32 -118 162 0
-149 160 0
30 32 -162 0
30 118 -162 0
120 -163 0
-1 -34 -120 163 0
34 -163 0
1 -163 0
122 -164 0
-1 -36 -122 164 0
36 -164 0
1 -164 0
-164 169 0
46 50 51 52 53 161 162 163 164 165 166 167 -169 0
46 51 53 134 161 162 163 164 165 166 167 168 -169 0
46 50 51 52 135 161 162 163 164 165 166 167 -169 0
124 -165 0
-1 -40 -124 165 0
40 -165 0
1 -165 0
126 -166 0
-1 -42 -126 166 0
42 -166 0
1 -166 0
-166 169 0
46 50 51 134 135 161 162 163 164 165 166 167 -169 0
128 -167 0
-1 -44 -128 167 0
44 -167 0
1 -167 0
-1 -46 -130 169 0
50 52 130 133 135 161 162 163 164 165 166 167 -169 0
46 50 51 53 134 161 162 163 164 165 166 167 -169 0
46 50 133 134 135 161 162 163 164 165 166 167 -169 0
50 52 53 130 133 161 162 163 164 165 166 167 -169 0
50 130 133 134 135 161 162 163 164 165 166 167 -169 0
46 50 52 53 133 161 162 163 164 165 166 167 -169 0
51 52 53 130 161 162 163 164 165 166 167 168 -169 0
46 133 134 135 161 162 163 164 165 166 167 168 -169 0
-1 -50 -168 169 0
51 53 130 134 161 162 163 164 165 166 167 168 -169 0
1 -169 0
46 52 133 135 161 162 163 164 165 166 167 168 -169 0
-1 -51 -133 169 0
-167 169 0
46 51 52 135 161 162 163 164 165 166 167 168 -169 0
46 53 133 134 161 162 163 164 165 166 167 168 -169 0
46 52 53 133 161 162 163 164 165 166 167 168 -169 0
50 51 53 130 134 161 162 163 164 165 166 167 -169 0
-1 -52 -134 169 0
46 50 52 133 135 161 162 163 164 165 166 167 -169 0
50 51 130 134 135 161 162 163 164 165 166 167 -169 0
46 50 53 133 134 161 162 163 164 165 166 167 -169 0
-1 -53 -135 169 0
51 130 134 135 161 162 163 164 165 166 167 168 -169 0
51 52 130 135 161 162 163 164 165 166 167 168 -169 0
46 51 134 135 161 162 163 164 165 166 167 168 -169 0
52 130 133 135 161 162 163 164 165 166 167 168 -169 0
50 51 52 53 130 161 162 163 164 165 166 167 -169 0
52 53 130 133 161 162 163 164 165 166 167 168 -169 0
130 133 134 135 161 162 163 164 165 166 167 168 -169 0
53 130 133 134 161 162 163 164 165 166 167 168 -169 0
50 51 52 130 135 161 162 163 164 165 166 167 -169 0
-162 169 0
-163 169 0
46 51 52 53 161 162 163 164 165 166 167 168 -169 0
-165 169 0
-161 169 0
50 53 130 133 134 161 162 163 164 165 166 167 -169 0
137 -170 0
15 -170 0
-2 -69 -137 141 0
69 77 80 138 -141 0
19 -171 0
-2 -73 -138 141 0
104 160 -171 0
50 51 52 53 104 -106 -109 -160 169 170 171 172 173 174 175 176 177 178 179 180 182 0
73 -77 -80 137 -139 -140 -141 0
23 -172 0
-2 -77 80 -139 141 0
-2 -80 139 -140 141 0
26 -173 0
69 73 139 140 -141 0
104 160 -173 0
-5 -10 -12 54 -56 -58 59 -60 -62 -66 -68 -70 -72 -74 -76 -78 -79 -81 -83 -85 -87 -89 -91 92 -93 -95 -97 -99 100 101 -102 103 -104 0
2 -144 0
30 -174 0
-2 -84 -142 144 0
143 -175 0
32 -175 0
-2 -86 -143 144 0
104 160 -175 0
2 -147 0
34 -176 0
-2 -88 -145 147 0
146 -177 0
36 -177 0
-2 -90 -146 147 0
104 160 -177 0
50 51 53 104 -106 -109 -160 169 170 171 172 173 174 175 176 177 178 179 180 182 183 0
2 104 -106 -109 -160 169 0
50 52 53 104 -106 -109 157 -160 169 170 171 172 173 174 175 176 177 178 179 180 182 0
148 -178 0
40 -178 0
2 -149 0
150 -179 0
42 -179 0
2 -151 0
104 160 -179 0
44 -180 0
-2 -98 -152 160 0
181 -182 0
-2 -46 -181 182 0
46 -182 0
2 -182 0
104 -106 -109 160 -182 0
50 51 104 -106 -109 159 -160 169 170 171 172 173 174 175 176 177 178 179 180 182 183 0
50 52 104 -106 -109 157 159 -160 169 170 171 172 173 174 175 176 177 178 179 180 182 0
-50 104 -106 -109 -155 160 0
104 160 -170 0
-51 104 -106 -109 -157 160 0
50 51 52 104 -106 -109 159 -160 169 170 171 172 173 174 175 176 177 178 179 180 182 0
51 52 53 104 -106 -109 155 -160 169 170 171 172 173 174 175 176 177 178 179 180 182 0
98 105 132 136 141 144 147 149 151 153 157 158 -160 0
53 104 -106 -109 155 157 -160 169 170 171 172 173 174 175 176 177 178 179 180 182 183 0
52 53 104 -106 -109 155 157 -160 169 170 171 172 173 174 175 176 177 178 179 180 182 0
-2 -52 104 -106 -109 160 -183 0
51 53 104 -106 -109 155 -160 169 170 171 172 173 174 175 176 177 178 179 180 182 183 0
51 52 104 -106 -109 155 159 -160 169 170 171 172 173 174 175 176 177 178 179 180 182 0
104 160 -172 0
50 53 104 -106 -109 157 -160 169 170 171 172 173 174 175 176 177 178 179 180 182 183 0
-2 -105 -159 160 0
104 -106 160 -174 0
104 160 -176 0
50 104 -106 -109 157 159 -160 169 170 171 172 173 174 175 176 177 178 179 180 182 183 0
104 160 -178 0
51 104 -106 -109 155 159 -160 169 170 171 172 173 174 175 176 177 178 179 180 182 183 0
104 160 -180 0
104 -106 -109 160 -169 0
